c --- [ banner ] -------------------------------------------------------------
c 
c CaDiCaL Radically Simplified CDCL SAT Solver
c Copyright (c) 2016-2021 A. Biere, M. Fleury, N. Froleyks
c 
c Version 1.5.2 a5f15211db36c3956764e18194dd5bd63bf3b5e6
c g++ (GCC) 9.3.0 -Wall -Wextra -O3 -DNDEBUG
c Fri Oct 21 01:27:37 EDT 2022 Linux gra-login3 3.10.0-1160.66.1.el7.x86_64 x86_64
c 
c --- [ limit ] --------------------------------------------------------------
c 
c setting conflict limit to 200000 conflicts (due to '200000')
c 
c --- [ parsing input ] ------------------------------------------------------
c 
c reading DIMACS file from '33.cubes6389.adj'
c opening file to read '33.cubes6389.adj'
c found 'p cnf 6160 1595476' header
c parsed 1595476 clauses in 19.71 seconds process time
c closing file '33.cubes6389.adj'
c after reading 1457566784 bytes 1390.0 MB
c 
c --- [ options ] ------------------------------------------------------------
c 
c all options are set to their default value
c 
c --- [ solving ] ------------------------------------------------------------
c 
c time measured in process time since initialization
c 
c  seconds    reductions  redundant   irredundant
c          MB     restarts       trail       variables
c            level   conflicts       glue         remaining
c 
c * 19.71 1377  0 0   0    0    0  0% 0 1595422 2409 39%
c { 20.61 1411  0 0   0    0    0  0% 0 1595422 2409 39%
c i 24.57 1498 521 0  10   80   75 31% 14 1595422 2398 39%
c i 24.88 1499 491 0  12   86   80 31% 15 1595422 2383 39%
c i 24.98 1500 478 0  13   89   81 31% 14 1595422 2381 39%
c i 26.61 1513 338 0  26  136  124 29% 19 1595422 2379 39%
c i 26.73 1514 330 0  27  140  127 29% 19 1595422 2378 39%
c i 27.64 1516 293 0  35  168  153 29% 22 1595422 2377 39%
c i 27.69 1516 289 0  36  172  156 29% 22 1595422 2375 39%
c i 27.80 1516 284 0  37  177  160 29% 23 1595422 2374 39%
c i 28.07 1517 264 0  42  196  177 29% 25 1595422 2373 39%
c i 28.88 1519 195 0  62  288  249 29% 27 1595422 2372 39%
c i 29.04 1519 190 0  62  298  257 29% 26 1595422 2371 38%
c - 32.75 1475 189 1  62  300  257 29% 26 345623 2371 38%
c i 33.28 1476 180 1  66  334  284 28% 28 345623 2370 38%
c i 33.63 1476 178 1  72  355  300 28% 28 345623 2368 38%
c i 34.89 1477 153 1  84  464  401 28% 27 345623 2367 38%
c i 35.28 1477 147 1  87  501  428 28% 28 345623 2366 38%
c i 36.22 1478 138 1 105  579  502 28% 29 345623 2365 38%
c i 37.76 1479 125 1 130  779  677 28% 31 345623 2364 38%
c 
c  seconds     reductions  redundant   irredundant
c          MB      restarts       trail       variables
c             level   conflicts       glue         remaining
c 
c i 37.82 1479 124 1 130  786  683 28% 31 345623 2363 38%
c i 37.85 1479 124 1 130  790  686 28% 31 345623 2362 38%
c i 37.99 1479 122 1 131  816  709 28% 31 345623 2361 38%
c i 37.99 1479 122 1 131  817  709 28% 31 345623 2360 38%
c i 38.02 1479 120 1 132  829  717 28% 31 345623 2359 38%
c i 38.15 1479 117 1 132  866  751 28% 31 345623 2358 38%
c } 38.36 1479 108 1 132 1000  855 29% 31 345623 2358 38%
c [ 38.36 1479  0 1 132 1000  855  0% 0 345623 2358 38%
c O 38.37 1479 36 1 132 1003  857 22% 36 345623 2358 38%
c i 38.38 1479 22 1 132 1005  858 19% 22 345623 2324 38%
c i 38.47 1479 16 1 132 1007  859 20% 16 345623 2323 38%
c - 39.44 1579 29 2 132 1223  890 32% 24 345007 2323 38%
c i 39.77 1579 31 2 132 1309  949 32% 26 345007 2322 38%
c i 39.91 1579 32 2 132 1478 1069 32% 27 345007 2321 38%
c i 40.41 1579 27 2 133 2287 1618 32% 22 345007 2320 38%
c i 40.50 1579 26 2 133 2460 1741 32% 22 345007 2319 38%
c - 41.05 1578 26 3 133 2607 1367 32% 22 344995 2319 38%
c ] 41.63 1524 26 3 133 3001 1644 55% 22 344995 2319 38%
c { 41.63 1524 108 3 133 3001 1644 76% 31 344995 2319 38%
c F 41.72 1524 108 3 133 3004 1647 76% 31 344995 2319 38%
c 
c  seconds     reductions  redundant   irredundant
c          MB      restarts       trail       variables
c             level   conflicts       glue         remaining
c 
c i 42.20 1524 106 3 133 3026 1666 75% 30 344995 2318 38%
c i 42.31 1524 105 3 133 3038 1673 75% 30 344995 2317 38%
c i 43.58 1524 99 3 150 3254 1858 70% 31 344995 2316 38%
c i 44.00 1524 98 3 161 3290 1886 70% 31 344995 2315 38%
c i 44.10 1524 98 3 165 3305 1900 69% 31 344995 2314 38%
c i 44.47 1524 96 3 168 3371 1950 69% 31 344995 2313 38%
c i 44.53 1524 93 3 168 3431 1985 68% 31 344995 2312 38%
c i 44.96 1524 94 3 175 3478 2017 67% 31 344995 2311 38%
c i 45.05 1524 95 3 177 3503 2031 66% 31 344995 2310 38%
c i 46.34 1524 96 3 204 3618 2134 65% 33 344995 2309 37%
c i 46.94 1524 96 3 216 3678 2180 64% 34 344995 2299 37%
c i 48.08 1524 92 3 226 3819 2266 62% 33 344995 2298 37%
c i 48.15 1524 92 3 226 3828 2274 62% 33 344995 2297 37%
c i 48.72 1524 93 3 232 3872 2313 61% 33 344995 2296 37%
c i 49.73 1524 91 3 249 4052 2468 60% 33 344995 2295 37%
c i 49.84 1524 91 3 254 4088 2499 60% 34 344995 2294 37%
c i 50.17 1524 90 3 263 4142 2546 60% 34 344995 2293 37%
c i 50.27 1524 89 3 264 4192 2593 60% 34 344995 2292 37%
c i 50.58 1524 85 3 267 4405 2766 58% 33 344995 2291 37%
c - 51.20 1517 84 4 269 4453 2098 58% 33 344754 2291 37%
c 
c  seconds    reductions  redundant   irredundant
c          MB     restarts       trail       variables
c            level   conflicts       glue         remaining
c 
c i 53.19 1517 84 4 277 4670 2290 57% 33 344754 2289 37%
c i 53.30 1517 84 4 280 4679 2298 57% 33 344754 2288 37%
c i 53.95 1517 83 4 289 4779 2373 57% 33 344754 2287 37%
c i 54.49 1517 81 4 300 4931 2501 56% 33 344754 2286 37%
c d 55.13 1517 80 4 300 5004 2561 56% 33 344723 2278 37%
c 2 55.21 1517 80 4 300 5004 3950 56% 33 344723 2275 37%
c p 63.33 1516 80 4 300 5004 7141 56% 33 344723 2219 36%
c d 63.93 1517 80 4 300 5004 6876 56% 33 344161 2218 36%
c # 65.86 1517 66 4 317 6006 7629 54% 29 344161 2218 36%
c - 67.97 1508 60 5 323 6759 3037 54% 28 344161 2218 36%
c } 68.22 1508 58 5 327 7001 3218 54% 27 344161 2218 36%
c [ 68.22 1508 26 5 327 7001 3218 55% 22 344161 2218 36%
c - 69.89 1366 27 6 329 9525 3345 54% 23 344161 2218 36%
c I 70.38 1366 27 6 329 10008 3649 54% 22 344161 2218 36%
c - 76.09 1367 52 7 331 12752 4033 52% 40 344161 2218 36%
c ] 80.69 1367 60 7 332 15001 5835 51% 47 344161 2218 36%
c { 80.69 1367 58 7 332 15001 5835 54% 27 344161 2218 36%
c 2 80.79 1367 58 7 333 15008 6972 54% 27 344161 2218 36%
c p 83.03 1367 58 7 333 15008 9752 54% 27 344161 2218 36%
c B 83.13 1367 58 7 333 15009 9753 54% 27 344161 2218 36%
c 
c  seconds    reductions   redundant   irredundant
c          MB     restarts        trail       variables
c            level    conflicts       glue         remaining
c 
c - 85.99 1369 51 8 367 16440 5062 53% 26 344161 2218 36%
c s 90.35 1369 45 8 430 18745 6538 52% 24 342970 2218 36%
c v 97.20 1369 45 8 430 18745 6538 52% 24 342966 2218 36%
c t 97.34 1369 45 8 430 18745 6531 52% 24 342958 2218 36%
c e 98.78 1372 45 8 430 18745 5577 52% 24 340176 835 14%
c s 98.90 1372 45 8 430 18745 5577 52% 24 340118 835 14%
c - 102.65 1372 39 9 430 20589 4772 73% 22 340118 835 14%
c W 103.71 1372 39 9 430 21016 5058 73% 22 340118 835 14%
c - 109.96 1372 35 10 535 25184 5836 73% 21 340118 835 14%
c F 123.60 1372 39 10 1087 28019 8246 73% 23 340118 835 14%
c p 128.87 1372 37 10 1130 30008 12044 73% 23 340118 835 14%
c - 131.11 1372 37 11 1156 30238 7096 73% 23 340118 835 14%
c } 134.08 1372 37 11 1210 31004 7692 73% 23 340118 835 14%
c [ 134.08 1372 60 11 1210 31004 7692 142% 47 340118 835 14%
c - 136.96 1372 47 12 1213 35752 6810 118% 37 340118 835 14%
c B 137.31 1372 46 12 1213 36020 6968 117% 37 340118 835 14%
c - 142.58 1372 42 13 1216 41726 7715 103% 34 340118 835 14%
c W 147.33 1372 40 13 1217 45022 10099 99% 33 340118 835 14%
c - 150.73 1372 38 14 1218 48160 8623 96% 31 340118 835 14%
c p 155.31 1372 37 14 1218 50008 12685 95% 31 340118 835 14%
c 
c  seconds     reductions      redundant   irredundant
c           MB      restarts          trail       variables
c             level      conflicts        glue        remaining
c 
c O 160.96 1372 36 14 1219 55023 15962 91% 30 340118 835 14%
c - 161.29 1372 36 15 1219 55054 9288 91% 30 340118 835 14%
c - 165.41 1372 33 16 1224 62405 8284 88% 28 340118 835 14%
c ] 165.75 1372 33 16 1225 63004 8627 88% 28 340118 835 14%
c { 165.75 1372 37 16 1225 63004 8627 73% 23 340118 835 14%
c B 170.94 1372 36 16 1331 66025 10752 74% 22 340118 835 14%
c - 177.97 1372 34 17 1404 70219 9162 74% 22 340118 835 14%
c p 186.28 1372 32 17 1423 75010 14748 74% 21 340118 835 14%
c W 191.43 1372 31 17 1520 78026 16728 75% 21 340118 835 14%
c - 192.40 1372 31 18 1539 78489 10291 75% 21 340118 835 14%
c - 204.44 1372 29 19 1798 87219 11098 75% 21 340118 835 14%
c # 207.22 1372 28 19 1801 91030 13624 75% 20 340118 835 14%
c - 215.80 1372 28 20 2019 96408 11909 75% 20 340118 835 14%
c p 225.30 1372 26 20 2086 105011 20463 75% 20 340118 835 14%
c B 225.68 1372 26 20 2086 105033 20480 75% 20 340118 835 14%
c - 227.45 1372 26 21 2121 106057 12565 75% 19 340118 835 14%
c - 243.48 1372 26 22 2564 116165 13306 75% 19 340118 835 14%
c W 248.27 1372 26 22 2589 120035 15909 75% 19 340118 835 14%
c - 266.19 1372 26 23 3034 126733 14716 75% 19 340118 835 14%
c } 266.74 1372 26 23 3051 127006 14914 75% 19 340118 835 14%
c 
c  seconds     reductions       redundant   irredundant
c           MB      restarts           trail       variables
c             level      conflicts         glue        remaining
c 
c [ 266.74 1372 33 23 3051 127006 14914 88% 28 340118 835 14%
c ] 269.95 1372 32 23 3054 133522 19281 86% 27 340118 835 14%
c 1 269.95 1372 32 23 3054 133522 19281 86% 27 340118 835 14%
c 
c --- [ writing output ] -----------------------------------------------------
c 
c writing simplified CNF to DIMACS file 'simp/33.cubes6389.adj.simp1'
c * 269.95 1372 32 23 3054 133522 19281 86% 27 340118 835 14%
c opening file to write 'simp/33.cubes6389.adj.simp1'
c writing 'p cnf 6160 340118' header
c closing file 'simp/33.cubes6389.adj.simp1'
c after writing 165059297 bytes 157.4 MB
c wrote 340118 clauses in 1.15 seconds process time
c 
c --- [ writing extension ] --------------------------------------------------
c 
c writing extension stack to 'simp/33.cubes6389.adj.ext1'
c opening file to write 'simp/33.cubes6389.adj.ext1'
c closing file 'simp/33.cubes6389.adj.ext1'
c after writing 90812 bytes 0.1 MB
c wrote 4007 witnesses in 0.00 seconds process time
c 
c --- [ result ] -------------------------------------------------------------
c 
s SATISFIABLE
c 
c --- [ run-time profiling ] -------------------------------------------------
c 
c process time taken by individual solving procedures
c (percentage relative to process time for solving)
c 
c       219.24   87.61% search
c       166.57   66.56% unstable
c        46.96   18.77% stable
c        30.99   12.39% simplify
c        19.71    7.88% parse
c        19.44    7.77% probe
c         6.94    2.77% vivify
c         4.81    1.92% walk
c         2.53    1.01% elim
c         0.90    0.36% lucky
c         0.30    0.12% ternary
c         0.24    0.09% subsume
c   =================================
c       250.24   92.30% solve
c 
c last line shows process time for solving
c (percentage relative to total process time)
c 
c --- [ statistics ] ---------------------------------------------------------
c 
c chronological:             23197        17.37 %  of conflicts
c conflicts:                133522       533.58    per second
c decisions:                300202      1199.66    per second
c eliminated:                 1383        22.45 %  of all variables
c fixed:                       789        12.81 %  of all variables
c learned:                  130635        97.84 %  per conflict
c learned_lits:           25842191       100.00 %  learned literals
c minimized:                     0         0.00 %  learned literals
c shrunken:               16690267        64.59 %  learned literals
c minishrunken:            1941011         7.51 %  learned literals
c propagations:            9394113         0.04 M  per second
c reduced:                   70195        52.57 %  per conflict
c rephased:                     15      8901.47    interval
c restarts:                   3054        43.72    interval
c stabilizing:                   4        36.34 %  of conflicts
c substituted:                   9         0.15 %  of all variables
c subsumed:                  41572         1.17 %  of all clauses
c strengthened:               3836         0.11 %  of all clauses
c ternary:                    4679         0.81 %  of resolved
c vivified:                     15         0.00 %  of all clauses
c walked:                        4     33380.50    interval
c weakened:                   3218         3.04    average size
c 
c seconds are measured in process time for solving
c 
c --- [ resources ] ----------------------------------------------------------
c 
c total process time since initialization:       271.10    seconds
c total real time since initialization:          271.25    seconds
c maximum resident set size of process:         1737.07    MB
c 
c --- [ shutting down ] ------------------------------------------------------
c 
c exit 10
WARNING! DIMACS header mismatch: wrong number of variables.
============================[ Problem Statistics ]=============================
|                                                                             |
|  Number of variables:          6120                                         |
|  Number of clauses:          340120                                         |
|  Parse time:                   2.21 s                                       |
|  Simplification time:          0.06 s                                       |
|                                                                             |
============================[ Search Statistics ]====================================================
| Conflicts |          ORIGINAL         |          LEARNT          | Num Sols |      SUBGRAPHS      |
|           |    Vars  Clauses Literals |    Limit  Clauses Lit/Cl |          | Canonical Noncanon. |
=====================================================================================================
|       146 |    6030   340166 35739588 |     2000      146     59 |        0 |        27        46 |
|       303 |    6030   340173 35740099 |     2000      303     83 |        0 |        36        53 |
|       596 |    6030   340241 35741108 |     2000      596     90 |        0 |        61       121 |
|       988 |    6030   340296 35741720 |     2000      988     90 |        0 |        94       176 |
|      1980 |    6030   340782 35748633 |     2000     1980     67 |        0 |       309       662 |
|      2748 |    6030   340791 35748859 |     3610     1758     57 |        0 |       314       671 |
|      4306 |    6030   341210 35756711 |     3610     3316     68 |        0 |       447      1090 |
|      7320 |    6030   342516 35775107 |     5005     4525     37 |        0 |       850      2396 |
|      9984 |    6030   342618 35777164 |     6301     4685     54 |        0 |       911      2498 |
|     15190 |    6030   343980 35796588 |     7552     6742     50 |        0 |      1345      3860 |
|     22225 |    6030   345249 35814586 |     9994     5619     36 |        0 |      1658      5129 |
|     33255 |    6030   347630 35848430 |    12415     6070     18 |        0 |      2198      7510 |
|     48542 |    6030   349943 35880142 |    14819     8361     30 |        0 |      2686      9823 |
|     71832 |    6030   353772 35935394 |    17223    16255     56 |        0 |      3576     13652 |
|    103936 |    6030   356684 35978764 |    20810    20746     66 |        0 |      4241     16564 |
=====================================================================================================
Number of solutions   : 0
Canonical subgraphs   : 4995           (32 /sec)
          order  3    : 1              (200000 /sec)
          order  4    : 1              (500000 /sec)
          order  5    : 1              (250000 /sec)
          order  6    : 1              (55556 /sec)
          order  7    : 1              (7874 /sec)
          order  8    : 2              (1367 /sec)
          order  9    : 7              (353 /sec)
          order 10    : 31             (113 /sec)
          order 11    : 150            (56 /sec)
          order 12    : 845            (49 /sec)
          order 13    : 379            (72 /sec)
          order 14    : 1175           (48 /sec)
          order 15    : 776            (35 /sec)
          order 16    : 810            (24 /sec)
          order 17    : 346            (19 /sec)
          order 18    : 347            (15 /sec)
          order 19    : 98             (15 /sec)
          order 20    : 18             (16 /sec)
          order 21    : 6              (20 /sec)
          order 22    : 0              (-nan /sec)
Noncanonical subgraphs: 20425          (309 /sec)
          order  3    : 0              (-nan /sec)
          order  4    : 0              (-nan /sec)
          order  5    : 0              (-nan /sec)
          order  6    : 0              (-nan /sec)
          order  7    : 0              (-nan /sec)
          order  8    : 0              (-nan /sec)
          order  9    : 0              (-nan /sec)
          order 10    : 0              (-nan /sec)
          order 11    : 0              (-nan /sec)
          order 12    : 0              (-nan /sec)
          order 13    : 6014           (2464 /sec)
          order 14    : 2310           (2540 /sec)
          order 15    : 1537           (1130 /sec)
          order 16    : 8981           (194 /sec)
          order 17    : 687            (189 /sec)
          order 18    : 747            (94 /sec)
          order 19    : 143            (46 /sec)
          order 20    : 0              (-nan /sec)
          order 21    : 0              (-nan /sec)
Canonicity checking   : 154.878 s
Noncanonicity checking: 66.02 s
Total canonicity time : 220.898 s
database reductions   : 19
restarts              : 382
conflicts             : 146887         (477 /sec)
decisions             : 242962         (0.00 % random) (788 /sec)
propagations          : 6691999        (21712 /sec)
conflict literals     : 14600763       (50.82 % deleted)
actual reward         : 0.272538
Memory used           : 449.00 MB
CPU time              : 308.215 s

UNSATISFIABLE
